; DUP1 PUSH 0x00 PUSH cw_1 AND DUP2 => DUP1 PUSH 0x00 DUP3
(set-option :produce-proofs true)
; 
(set-info :status unknown)
(declare-fun storage_t ((_ BitVec 256) (_ BitVec 256) Int (_ BitVec 256)) (_ BitVec 256))
(declare-fun w_1 () (_ BitVec 256))
(declare-fun storage_s ((_ BitVec 256) (_ BitVec 256) Int (_ BitVec 256)) (_ BitVec 256))
(declare-fun exc_halt_t (Int) Bool)
(declare-fun exc_halt_s (Int) Bool)
(declare-fun stack_t ((_ BitVec 256) (_ BitVec 256) Int (_ BitVec 6)) (_ BitVec 256))
(declare-fun stack_s ((_ BitVec 256) (_ BitVec 256) Int (_ BitVec 6)) (_ BitVec 256))
(declare-fun sc_t (Int) (_ BitVec 6))
(declare-fun sc_s (Int) (_ BitVec 6))
(declare-fun used_gas_t ((_ BitVec 256) (_ BitVec 256) Int) Int)
(declare-fun used_gas_s ((_ BitVec 256) (_ BitVec 256) Int) Int)
(assert
 (exists ((x_0 (_ BitVec 256)) )(let (($x2703 (forall ((w (_ BitVec 256)) )(let ((?x160 (storage_t x_0 w_1 3 w)))
 (let ((?x7039 (storage_s x_0 w_1 5 w)))
 (= ?x7039 ?x160))))
 ))
 (let (($x6783 (exc_halt_t 3)))
 (let (($x11317 (exc_halt_s 5)))
 (let (($x11613 (= $x11317 $x6783)))
 (let (($x10111 (forall ((n (_ BitVec 6)) )(let ((?x4538 (stack_t x_0 w_1 3 n)))
 (let ((?x2704 (stack_s x_0 w_1 5 n)))
 (let (($x7846 (= ?x2704 ?x4538)))
 (let ((?x6438 (sc_t 3)))
 (let (($x2477 (bvsle ?x6438 n)))
 (or $x2477 $x7846)))))))
 ))
 (let ((?x6438 (sc_t 3)))
 (let ((?x4319 (sc_s 5)))
 (let (($x7281 (= ?x4319 ?x6438)))
 (let ((?x2801 (used_gas_t x_0 w_1 0)))
 (let ((?x5968 (used_gas_s x_0 w_1 0)))
 (let (($x9028 (= ?x5968 ?x2801)))
 (let (($x10163 (forall ((w (_ BitVec 256)) )(let ((?x10276 (storage_t x_0 w_1 0 w)))
 (let ((?x7723 (storage_s x_0 w_1 0 w)))
 (= ?x7723 ?x10276))))
 ))
 (let (($x56 (exc_halt_t 0)))
 (let (($x57 (exc_halt_s 0)))
 (let (($x58 (= $x57 $x56)))
 (let (($x3478 (forall ((n (_ BitVec 6)) )(let ((?x63 (sc_t 0)))
 (let (($x11783 (bvsle ?x63 n)))
 (let ((?x6522 (stack_t x_0 w_1 0 n)))
 (let ((?x8988 (stack_s x_0 w_1 0 n)))
 (let (($x6195 (= ?x8988 ?x6522)))
 (or $x6195 $x11783)))))))
 ))
 (let ((?x63 (sc_t 0)))
 (let ((?x72 (sc_s 0)))
 (let (($x73 (= ?x72 ?x63)))
 (let (($x7871 (not (= ((_ extract 6 6) (bvadd (_ bv1 7) (concat (_ bv0 1) (sc_t 2)))) (_ bv0 1)))))
 (let (($x5252 (exc_halt_t 2)))
 (let (($x6817 (forall ((w (_ BitVec 256)) )(let ((?x877 (storage_t x_0 w_1 2 w)))
 (let ((?x160 (storage_t x_0 w_1 3 w)))
 (= ?x160 ?x877))))
 ))
 (let (($x2820 (forall ((n (_ BitVec 6)) )(or (bvsle (bvadd (_ bv61 6) (sc_t 2)) n) (= (stack_t x_0 w_1 3 n) (stack_t x_0 w_1 2 n))))
 ))
 (let (($x708 (= ?x6438 (bvadd (_ bv1 6) (sc_t 2)))))
 (let (($x6737 (= (used_gas_t x_0 w_1 3) (+ 3 (used_gas_t x_0 w_1 2)))))
 (let (($x3389 (= (stack_t x_0 w_1 3 (bvadd (_ bv63 6) (sc_t 2))) (stack_t x_0 w_1 2 (bvadd (_ bv63 6) (sc_t 2))))))
 (let (($x10974 (= (stack_t x_0 w_1 3 (bvadd (_ bv62 6) (sc_t 2))) (stack_t x_0 w_1 2 (bvadd (_ bv62 6) (sc_t 2))))))
 (let ((?x2714 (sc_t 2)))
 (let ((?x4798 (bvadd (_ bv61 6) ?x2714)))
 (let ((?x595 (stack_t x_0 w_1 2 ?x4798)))
 (let (($x6748 (not (= ((_ extract 6 6) (bvadd (_ bv1 7) (concat (_ bv0 1) (sc_t 1)))) (_ bv0 1)))))
 (let (($x3508 (exc_halt_t 1)))
 (let (($x510 (= $x5252 (or $x3508 $x6748))))
 (let (($x7073 (forall ((w (_ BitVec 256)) )(let ((?x5217 (storage_t x_0 w_1 1 w)))
 (let ((?x877 (storage_t x_0 w_1 2 w)))
 (= ?x877 ?x5217))))
 ))
 (let (($x9552 (forall ((n (_ BitVec 6)) )(let ((?x8347 (sc_t 1)))
 (let (($x11298 (bvsle ?x8347 n)))
 (or (= (stack_t x_0 w_1 2 n) (stack_t x_0 w_1 1 n)) $x11298))))
 ))
 (let (($x995 (= ?x2714 (bvadd (_ bv1 6) (sc_t 1)))))
 (let ((?x2229 (used_gas_t x_0 w_1 2)))
 (let (($x9786 (not (= ((_ extract 6 6) (bvadd (_ bv1 7) (concat (_ bv0 1) ?x63))) (_ bv0 1)))))
 (let (($x9611 (forall ((w (_ BitVec 256)) )(let ((?x10276 (storage_t x_0 w_1 0 w)))
 (let ((?x5217 (storage_t x_0 w_1 1 w)))
 (= ?x5217 ?x10276))))
 ))
 (let (($x4615 (forall ((n (_ BitVec 6)) )(let ((?x6522 (stack_t x_0 w_1 0 n)))
 (let ((?x4127 (stack_t x_0 w_1 1 n)))
 (let (($x970 (= ?x4127 ?x6522)))
 (or $x970 (bvsle (bvadd (_ bv63 6) (sc_t 0)) n))))))
 ))
 (let ((?x8347 (sc_t 1)))
 (let (($x934 (= ?x8347 (bvadd (_ bv1 6) ?x63))))
 (let ((?x10595 (used_gas_t x_0 w_1 1)))
 (let (($x2091 (= ?x10595 (+ 3 ?x2801))))
 (let ((?x1928 (bvadd (_ bv63 6) ?x63)))
 (let ((?x10611 (stack_t x_0 w_1 0 ?x1928)))
 (let (($x10255 (not (bvsle (_ bv0 6) (bvadd (_ bv62 6) (sc_s 4))))))
 (let (($x7172 (exc_halt_s 4)))
 (let (($x1959 (not (= ((_ extract 6 6) (bvadd (_ bv1 7) (concat (_ bv0 1) (sc_s 4)))) (_ bv0 1)))))
 (let (($x11328 (= $x11317 (or $x1959 $x7172 $x10255))))
 (let (($x1048 (forall ((w (_ BitVec 256)) )(let ((?x11142 (storage_s x_0 w_1 4 w)))
 (let ((?x7039 (storage_s x_0 w_1 5 w)))
 (= ?x7039 ?x11142))))
 ))
 (let (($x3209 (forall ((n (_ BitVec 6)) )(let ((?x4305 (sc_s 4)))
 (let ((?x4084 (bvadd (_ bv62 6) ?x4305)))
 (let (($x11454 (bvsle ?x4084 n)))
 (or (= (stack_s x_0 w_1 5 n) (stack_s x_0 w_1 4 n)) $x11454)))))
 ))
 (let (($x9335 (= ?x4319 (bvadd (_ bv1 6) (sc_s 4)))))
 (let (($x11429 (= (used_gas_s x_0 w_1 5) (+ 3 (used_gas_s x_0 w_1 4)))))
 (let ((?x4305 (sc_s 4)))
 (let ((?x8501 (bvadd (_ bv63 6) ?x4305)))
 (let ((?x1679 (stack_s x_0 w_1 4 ?x8501)))
 (let ((?x4084 (bvadd (_ bv62 6) ?x4305)))
 (let ((?x2806 (stack_s x_0 w_1 4 ?x4084)))
 (let (($x11446 (= $x7172 (or (exc_halt_s 3) (not (bvsle (_ bv0 6) (bvadd (_ bv62 6) (sc_s 3))))))))
 (let (($x2891 (forall ((w (_ BitVec 256)) )(let ((?x10430 (storage_s x_0 w_1 3 w)))
 (let ((?x11142 (storage_s x_0 w_1 4 w)))
 (= ?x11142 ?x10430))))
 ))
 (let (($x7470 (forall ((n (_ BitVec 6)) )(let ((?x275 (sc_s 3)))
 (let ((?x6164 (bvadd (_ bv62 6) ?x275)))
 (let (($x2616 (bvsle ?x6164 n)))
 (or $x2616 (= (stack_s x_0 w_1 4 n) (stack_s x_0 w_1 3 n)))))))
 ))
 (let ((?x275 (sc_s 3)))
 (let ((?x3294 (bvadd (_ bv63 6) ?x275)))
 (let (($x4627 (= ?x4305 ?x3294)))
 (let ((?x7031 (used_gas_s x_0 w_1 4)))
 (let (($x3868 (= ?x7031 (+ 3 (used_gas_s x_0 w_1 3)))))
 (let ((?x9466 (bvor (bvnot (stack_s x_0 w_1 3 ?x3294)) (bvnot (stack_s x_0 w_1 3 (bvadd (_ bv62 6) ?x275))))))
 (let (($x1901 (= ?x1679 (bvnot ?x9466))))
 (let (($x247 (exc_halt_s 2)))
 (let (($x3456 (or $x247 (not (= ((_ extract 6 6) (bvadd (_ bv1 7) (concat (_ bv0 1) (sc_s 2)))) (_ bv0 1))))))
 (let (($x292 (exc_halt_s 3)))
 (let (($x5428 (= $x292 $x3456)))
 (let (($x871 (forall ((w (_ BitVec 256)) )(let ((?x7921 (storage_s x_0 w_1 2 w)))
 (let ((?x10430 (storage_s x_0 w_1 3 w)))
 (= ?x10430 ?x7921))))
 ))
 (let (($x2641 (forall ((n (_ BitVec 6)) )(let ((?x218 (sc_s 2)))
 (let (($x2992 (bvsle ?x218 n)))
 (or (= (stack_s x_0 w_1 3 n) (stack_s x_0 w_1 2 n)) $x2992))))
 ))
 (let (($x11614 (= ?x275 (bvadd (_ bv1 6) (sc_s 2)))))
 (let ((?x10578 (used_gas_s x_0 w_1 3)))
 (let (($x108 (= ?x10578 (+ 3 (used_gas_s x_0 w_1 2)))))
 (let (($x6727 (= (stack_s x_0 w_1 3 (sc_s 2)) w_1)))
 (let (($x8177 (not (= ((_ extract 6 6) (bvadd (_ bv1 7) (concat (_ bv0 1) (sc_s 1)))) (_ bv0 1)))))
 (let (($x189 (exc_halt_s 1)))
 (let (($x7427 (= $x247 (or $x189 $x8177))))
 (let (($x3481 (forall ((w (_ BitVec 256)) )(let ((?x2688 (storage_s x_0 w_1 1 w)))
 (let ((?x7921 (storage_s x_0 w_1 2 w)))
 (= ?x7921 ?x2688))))
 ))
 (let (($x8775 (forall ((n (_ BitVec 6)) )(let ((?x154 (sc_s 1)))
 (let (($x11447 (bvsle ?x154 n)))
 (let ((?x6502 (stack_s x_0 w_1 1 n)))
 (let ((?x11835 (stack_s x_0 w_1 2 n)))
 (let (($x8232 (= ?x11835 ?x6502)))
 (or $x8232 $x11447)))))))
 ))
 (let ((?x218 (sc_s 2)))
 (let (($x9548 (= ?x218 (bvadd (_ bv1 6) (sc_s 1)))))
 (let ((?x7467 (used_gas_s x_0 w_1 2)))
 (let (($x2407 (= ?x7467 (+ 3 (used_gas_s x_0 w_1 1)))))
 (let (($x10446 (not (= ((_ extract 6 6) (bvadd (_ bv1 7) (concat (_ bv0 1) ?x72))) (_ bv0 1)))))
 (let (($x4661 (not (bvsle (_ bv0 6) (bvadd (_ bv63 6) ?x72)))))
 (let (($x5360 (forall ((w (_ BitVec 256)) )(let ((?x7723 (storage_s x_0 w_1 0 w)))
 (let ((?x2688 (storage_s x_0 w_1 1 w)))
 (= ?x2688 ?x7723))))
 ))
 (let (($x9800 (forall ((n (_ BitVec 6)) )(let ((?x8988 (stack_s x_0 w_1 0 n)))
 (let ((?x6502 (stack_s x_0 w_1 1 n)))
 (let (($x7244 (= ?x6502 ?x8988)))
 (let ((?x72 (sc_s 0)))
 (let ((?x10160 (bvadd (_ bv63 6) ?x72)))
 (let (($x6571 (bvsle ?x10160 n)))
 (or $x6571 $x7244))))))))
 ))
 (let ((?x154 (sc_s 1)))
 (let (($x10536 (= ?x154 (bvadd (_ bv1 6) ?x72))))
 (let ((?x940 (used_gas_s x_0 w_1 1)))
 (let (($x9023 (= ?x940 (+ 3 ?x5968))))
 (let ((?x10160 (bvadd (_ bv63 6) ?x72)))
 (let ((?x3779 (stack_s x_0 w_1 0 ?x10160)))
 (let (($x1162 (forall ((w (_ BitVec 256)) )(let ((?x7723 (storage_s x_0 w_1 0 w)))
 (= ?x7723 (_ bv0 256))))
 ))
 (let (($x2226 (= ?x5968 0)))
 (let (($x3095 (not $x57)))
 (let (($x3537 (= (stack_s x_0 w_1 0 (_ bv0 6)) x_0)))
 (let (($x8685 (= ?x72 (_ bv1 6))))
 (and $x8685 $x3537 $x3095 $x2226 $x1162 (= (stack_s x_0 w_1 1 (bvadd (_ bv63 6) ?x154)) ?x3779) (= (stack_s x_0 w_1 1 ?x10160) ?x3779) $x9023 $x10536 $x9800 $x5360 (= $x189 (or $x57 $x4661 $x10446)) (= (stack_s x_0 w_1 2 ?x154) (_ bv0 256)) $x2407 $x9548 $x8775 $x3481 $x7427 $x6727 $x108 $x11614 $x2641 $x871 $x5428 $x1901 $x3868 $x4627 $x7470 $x2891 $x11446 (= (stack_s x_0 w_1 5 (bvadd (_ bv63 6) ?x4319)) ?x2806) (= (stack_s x_0 w_1 5 ?x4084) ?x2806) (= (stack_s x_0 w_1 5 ?x8501) ?x1679) $x11429 $x9335 $x3209 $x1048 $x11328 (= (stack_t x_0 w_1 1 (bvadd (_ bv63 6) ?x8347)) ?x10611) (= (stack_t x_0 w_1 1 ?x1928) ?x10611) $x2091 $x934 $x4615 $x9611 (= $x3508 (or $x56 (not (bvsle (_ bv0 6) ?x1928)) $x9786)) (= (stack_t x_0 w_1 2 ?x8347) (_ bv0 256)) (= ?x2229 (+ 3 ?x10595)) $x995 $x9552 $x7073 $x510 (= (stack_t x_0 w_1 3 (bvadd (_ bv63 6) ?x6438)) ?x595) (= (stack_t x_0 w_1 3 ?x4798) ?x595) $x10974 $x3389 $x6737 $x708 $x2820 $x6817 (= $x6783 (or (not (bvsle (_ bv0 6) ?x4798)) $x5252 $x7871)) $x73 $x3478 $x58 $x10163 $x9028 (not (and $x7281 $x10111 $x11613 $x2703)))))))))))))))))))))))))))))))))))))))))))))))))))))))))))))))))))))))))))))))))))))))))))))))))))))))))))
 )
(check-sat)
(get-proof)
